(set-info :source |
 Generated by Alive 0.1
 More info in N. P. Lopes, D. Menendez, S. Nagarakatte, J. Regehr.
 Provably Correct Peephole Optimizations with Alive. In PLDI'15.
|)

(set-info :status unknown)
(declare-fun %Y () (_ BitVec 19))
(declare-fun %X () (_ BitVec 19))
(assert
 (let (($x434715 (and (distinct (bvurem ((_ zero_extend 42) %X) ((_ zero_extend 42) %Y)) ((_ zero_extend 42) (bvurem %X %Y))) true)))
 (let ((?x442291 ((_ zero_extend 42) %Y)))
 (let (($x442294 (and (distinct ?x442291 (_ bv0 61)) true)))
 (and $x442294 $x434715)))))
(check-sat)
